NAME : traveling-santa-2018-prime-paths.28832.tour
COMMENT : Length = 28832
COMMENT : Found by LKH [Keld Helsgaun] Sun Jun 12 20:03:18 2022
TYPE : TOUR
DIMENSION : 100
TOUR_SECTION
1
2
89
9
94
4
83
86
62
64
66
71
77
15
54
73
36
84
47
69
76
50
41
10
51
87
57
81
68
90
55
13
32
30
49
38
53
23
72
92
16
12
35
45
6
44
93
34
63
80
79
43
99
95
29
96
74
98
82
14
28
59
60
7
85
37
70
33
88
39
25
61
17
3
48
40
75
100
8
78
56
67
65
97
19
52
11
91
26
46
20
5
18
24
22
31
58
27
21
42
-1
EOF
